qe/outputs/qe/cbrdelay_obs_newl/T=6,eliminate=[I_0,I_1,I_2,I_3,I_4,I_5,C,B,lhs=L_5],pl=5.smt2
; benchmark generated from python API
(set-info :status unknown)
(declare-fun L_2 () Real)
(declare-fun S_2 () Real)
(declare-fun A_2 () Real)
(declare-fun L_3 () Real)
(declare-fun S_3 () Real)
(declare-fun A_3 () Real)
(declare-fun L_5 () Real)
(declare-fun A_5 () Real)
(declare-fun S_5 () Real)
(declare-fun S_1 () Real)
(declare-fun L_1 () Real)
(declare-fun A_1 () Real)
(declare-fun S_4 () Real)
(declare-fun A_4 () Real)
(declare-fun L_0 () Real)
(declare-fun S_0 () Real)
(declare-fun A_0 () Real)
(assert
 (let (($x39 (>= L_0 0.0)))
 (let ((?x25248 (* 5.0 L_5)))
 (let ((?x1262 (* (- 1.0) S_0)))
 (let ((?x29327 (* (- 5.0) A_5)))
 (let ((?x67420 (* (- 6.0) L_3)))
 (let ((?x29355 (* 6.0 A_4)))
 (let (($x571 (= L_5 L_3)))
 (let ((?x4604 (* (- (/ 1.0 3.0)) S_0)))
 (let ((?x32061 (* (/ 1.0 3.0) S_2)))
 (let ((?x442 (* (- 1.0) A_5)))
 (let ((?x307 (* (- 1.0) L_3)))
 (let ((?x7184 (* 4.0 L_5)))
 (let ((?x6679 (* (- 4.0) A_5)))
 (let ((?x3577 (* (- 4.0) L_3)))
 (let ((?x2950 (* 4.0 A_4)))
 (let (($x66735 (<= (+ (* 5.0 A_4) (* (- 5.0) L_3) ?x6679 (* (- 1.0) S_1) ?x7184) (- 20.0))))
 (let ((?x2082 (* 3.0 L_5)))
 (let ((?x398 (* (- 1.0) S_1)))
 (let ((?x2101 (* (- 3.0) A_5)))
 (let ((?x1730 (* (- 3.0) L_3)))
 (let ((?x2103 (* 3.0 A_4)))
 (let ((?x2115 (* 2.0 L_5)))
 (let ((?x2114 (* (- 2.0) A_5)))
 (let ((?x1595 (* (- 2.0) L_3)))
 (let ((?x2112 (* 2.0 A_4)))
 (let (($x133865 (or $x571 (<= (+ ?x2950 ?x3577 ?x2101 (* (- 1.0) A_1) L_1 ?x2082) (- 15.0)))))
 (let ((?x4892 (* (- (/ 1.0 2.0)) S_0)))
 (let ((?x9162 (* (/ 1.0 2.0) S_1)))
 (let ((?x290 (* (- 1.0) L_2)))
 (let ((?x436 (* (- 1.0) A_3)))
 (let (($x76 (= L_3 L_2)))
 (let (($x72211 (or $x76 (<= (+ ?x436 (* 2.0 S_1) ?x1262 L_3) (- 5.0)) (<= (+ ?x436 A_2 ?x290 ?x9162 ?x4892 L_3) (- 5.0)))))
 (let (($x66185 (<= (+ (* 3.0 S_5) (* (- 3.0) A_4) (* 4.0 L_3) ?x436 S_0) (- 5.0))))
 (let ((?x273 (* (- 1.0) L_1)))
 (let ((?x1610 (* 3.0 L_3)))
 (let ((?x2107 (* (- 2.0) A_4)))
 (let ((?x2945 (* 2.0 S_5)))
 (let ((?x65957 (+ ?x2945 ?x2107 ?x1610 ?x436 A_1 ?x273)))
 (let ((?x1582 (* 2.0 L_3)))
 (let ((?x439 (* (- 1.0) A_4)))
 (let ((?x60196 (+ S_5 ?x439 ?x1582 ?x436 A_2 ?x290)))
 (let (($x64350 (<= ?x60196 (- 5.0))))
 (let (($x134123 (or $x571 (<= (+ ?x2112 ?x1595 ?x2114 (* (- 1.0) A_1) S_3 L_1 ?x2115) (- 10.0)))))
 (let (($x134797 (or $x571 (<= (+ ?x2103 ?x1730 ?x2101 (* (- 1.0) A_0) S_3 ?x2082 L_0) (- 15.0)))))
 (let (($x72133 (or $x571 (<= (+ ?x2112 ?x1595 ?x2114 S_3 (* (- 1.0) S_2) ?x2115) (- 10.0)))))
 (let (($x63507 (<= (+ (* (/ 3.0 4.0) A_4) (* (/ 1.0 4.0) L_3) ?x436 (* (/ 1.0 4.0) S_0)) (- 5.0))))
 (let ((?x1838 (* (- (/ 1.0 2.0)) L_2)))
 (let ((?x2369 (* (/ 1.0 2.0) A_2)))
 (let ((?x2355 (* (/ 1.0 2.0) L_3)))
 (let ((?x2380 (* (/ 1.0 2.0) A_4)))
 (let (($x63275 (<= (+ ?x2380 ?x2355 ?x436 ?x2369 ?x1838) (- 5.0))))
 (let ((?x5296 (* (- (/ 1.0 3.0)) L_1)))
 (let ((?x5154 (* (/ 1.0 3.0) A_1)))
 (let ((?x9152 (* (/ 1.0 3.0) L_3)))
 (let ((?x5310 (* (/ 2.0 3.0) A_4)))
 (let (($x70530 (<= (+ ?x436 (* (- (/ 1.0 2.0)) A_0) (* (/ 3.0 2.0) S_2) L_3 (* (/ 1.0 2.0) L_0)) (- 5.0))))
 (let ((?x1290 (* (- 1.0) A_0)))
 (let ((?x60984 (* (- 5.0) L_3)))
 (let ((?x4433 (* 5.0 A_4)))
 (let ((?x26408 (* (/ 4.0 3.0) L_5)))
 (let ((?x9056 (* (/ 1.0 3.0) A_3)))
 (let ((?x26405 (* (- (/ 4.0 3.0)) A_5)))
 (let ((?x27113 (* (- (/ 5.0 3.0)) L_3)))
 (let ((?x7019 (* (/ 4.0 3.0) A_4)))
 (let ((?x1237 (* 3.0 L_2)))
 (let ((?x1236 (* (- 2.0) L_1)))
 (let ((?x1235 (* 2.0 A_1)))
 (let ((?x1234 (* (- 3.0) A_2)))
 (let ((?x62100 (+ A_4 ?x307 ?x1234 ?x1235 ?x1236 ?x1237)))
 (let (($x61950 (<= (+ ?x2380 (* (- (/ 1.0 2.0)) L_3) (* (- 1.0) A_2) (* (/ 1.0 2.0) S_0) L_2) (- 5.0))))
 (let (($x66 (= L_2 L_1)))
 (let (($x134124 (or $x66 (<= (+ (* (- 1.0) A_2) A_1 ?x273 L_2) (- 10.0)) (<= (+ (* (- 1.0) A_2) S_0 L_2) (- 15.0)))))
 (let ((?x26402 (* (- (/ 2.0 3.0)) L_5)))
 (let ((?x26399 (* (/ 2.0 3.0) A_5)))
 (let ((?x5297 (* (- (/ 2.0 3.0)) A_4)))
 (let (($x67910 (<= (+ ?x5297 (* (/ 4.0 3.0) L_3) ?x26399 (* (- (/ 2.0 3.0)) A_3) S_1 ?x4604 ?x26402) 0.0)))
 (let ((?x2075 (* (/ 1.0 2.0) L_5)))
 (let ((?x2388 (* (/ 1.0 2.0) L_2)))
 (let ((?x2387 (* (- (/ 1.0 2.0)) A_2)))
 (let ((?x2382 (* (/ 1.0 2.0) A_3)))
 (let ((?x2371 (* (- (/ 1.0 2.0)) A_5)))
 (let ((?x59248 (+ ?x2380 ?x307 ?x2371 ?x2382 ?x2387 ?x2388 ?x2075)))
 (let (($x61203 (<= 0.0 ?x59248)))
 (let (($x132448 (or $x571 (<= (+ ?x2112 ?x1730 ?x2114 A_3 (* (- 1.0) S_2) ?x2115) (- 5.0)))))
 (let ((?x2399 (* (/ 3.0 2.0) L_5)))
 (let ((?x6172 (* (- (/ 1.0 2.0)) S_1)))
 (let ((?x2396 (* (- (/ 3.0 2.0)) A_5)))
 (let ((?x2393 (* (/ 3.0 2.0) A_4)))
 (let ((?x431 (* (- 1.0) A_1)))
 (let ((?x425 (* (- 1.0) S_5)))
 (let (($x61070 (<= 0.0 (+ ?x425 ?x2112 ?x1730 ?x442 A_3 ?x431 L_1 L_5))))
 (let ((?x341 (* (- 1.0) L_5)))
 (let ((?x3357 (* 4.0 L_3)))
 (let ((?x2081 (* (- 3.0) A_4)))
 (let (($x65267 (or $x76 (<= (+ ?x2945 ?x2081 ?x3357 A_5 ?x436 S_0 ?x341) 0.0) $x61070 $x61203)))
 (let (($x63525 (<= 0.0 (+ A_4 (* (- (/ 5.0 2.0)) L_3) ?x2396 (* (/ 3.0 2.0) A_3) ?x431 L_1 ?x2399))))
 (let ((?x2119 (* (- 2.0) L_5)))
 (let ((?x1400 (* (- 2.0) A_3)))
 (let ((?x2118 (* 2.0 A_5)))
 (let ((?x3263 (* (- 4.0) L_2)))
 (let ((?x3113 (* 4.0 A_2)))
 (let ((?x3103 (* (- 4.0) A_3)))
 (let ((?x433 (* (- 1.0) A_2)))
 (let ((?x59753 (+ A_4 ?x436 ?x433 A_1 ?x273 L_2)))
 (let (($x57897 (<= ?x59753 (- 5.0))))
 (let ((?x1086 (* (- 3.0) L_2)))
 (let ((?x1174 (* 3.0 A_2)))
 (let ((?x1609 (* (- 3.0) A_3)))
 (let ((?x3572 (* (- 5.0) L_2)))
 (let ((?x3589 (* 5.0 A_2)))
 (let ((?x3438 (* (- 5.0) A_3)))
 (let ((?x11192 (* (/ 1.0 2.0) L_0)))
 (let ((?x19033 (* (/ 1.0 2.0) S_2)))
 (let ((?x8688 (* (- (/ 1.0 2.0)) A_0)))
 (let (($x3401 (<= (+ ?x1400 (* 2.0 A_2) S_2 ?x398 (* (- 2.0) L_2) ?x1582) 0.0)))
 (let (($x61969 (not $x571)))
 (let (($x132622 (or $x76 $x61070 $x61203 $x61969 (<= (+ ?x2945 ?x2081 ?x1610 A_5 ?x436 S_0) 0.0))))
 (let ((?x30907 (* (- (/ 5.0 2.0)) L_1)))
 (let ((?x16525 (* (/ 5.0 2.0) A_1)))
 (let ((?x16524 (* (- (/ 5.0 2.0)) A_3)))
 (let ((?x2415 (* (/ 3.0 2.0) L_3)))
 (let (($x66457 (<= (+ A_4 ?x2415 ?x16524 ?x16525 ?x1262 ?x30907) 0.0)))
 (let ((?x26396 (* (/ 2.0 3.0) L_5)))
 (let ((?x26375 (* (- (/ 2.0 3.0)) A_5)))
 (let (($x67124 (<= (+ A_4 ?x307 ?x26375 (* (- (/ 1.0 3.0)) A_2) (* (/ 1.0 3.0) L_2) ?x26396) (- 5.0))))
 (let ((?x489 (+ A_4 ?x307 ?x442 A_2 ?x431 L_1 ?x290 L_5)))
 (let (($x590 (<= 0.0 ?x489)))
 (let (($x132365 (or $x66 $x590 (<= (+ ?x439 L_3 A_5 ?x433 S_0 L_2 ?x341) (- 5.0)))))
 (let ((?x5602 (* (- (/ 1.0 2.0)) L_1)))
 (let ((?x5477 (* (/ 1.0 2.0) A_1)))
 (let ((?x2364 (* (- (/ 1.0 2.0)) A_3)))
 (let (($x68165 (<= (+ S_5 ?x439 ?x2415 ?x2364 ?x5477 ?x5602) 0.0)))
 (let ((?x404 (* (- 1.0) S_2)))
 (let ((?x1243 (* (- 2.0) L_2)))
 (let ((?x1242 (* 2.0 A_2)))
 (let (($x43856 (<= (+ ?x1400 ?x1242 ?x1235 ?x1243 ?x404 ?x1262 ?x1236 ?x1582) 0.0)))
 (let (($x136211 (or $x66 $x590 (<= (+ A_5 ?x436 ?x433 L_3 S_0 L_2 ?x341) 0.0))))
 (let (($x1630 (<= (+ ?x436 A_2 A_1 ?x273 ?x398 ?x290 L_3) 0.0)))
 (let ((?x10020 (* (- 4.0) L_1)))
 (let ((?x5359 (* (- 2.0) S_1)))
 (let ((?x13297 (* 4.0 A_1)))
 (let (($x721 (<= (+ ?x436 A_2 A_1 ?x1290 ?x273 ?x290 L_3 L_0) 0.0)))
 (let (($x69612 (<= (+ ?x1400 ?x1242 A_1 ?x1243 ?x1262 ?x273 ?x1582) (- 5.0))))
 (let (($x31059 (<= (+ ?x1400 ?x1235 S_3 ?x1262 ?x1236 ?x1582) 0.0)))
 (let (($x132828 (or $x76 $x68165 (<= (+ S_5 ?x439 ?x1582 ?x436 A_2 A_1 ?x290 ?x404 ?x273) 0.0))))
 (let (($x15705 (<= (+ ?x436 A_1 S_1 ?x1262 ?x273 L_3) 0.0)))
 (let (($x2925 (<= (+ A_2 (* (- 1.0) S_3) ?x290) 0.0)))
 (let ((?x5324 (* (- (/ 4.0 3.0)) L_1)))
 (let ((?x5323 (* (- 2.0) S_3)))
 (let ((?x5322 (* (/ 4.0 3.0) A_1)))
 (let ((?x9553 (* (- (/ 2.0 3.0)) L_3)))
 (let (($x61686 (<= (+ ?x2380 (* (- (/ 1.0 2.0)) L_3) (* (- 1.0) S_3) (* (/ 1.0 2.0) S_0)) 0.0)))
 (let (($x62689 (<= (+ (* (/ 1.0 3.0) A_4) (* (- (/ 1.0 3.0)) L_3) ?x433 (* (/ 2.0 3.0) S_1) L_2) (- 5.0))))
 (let (($x63132 (<= (+ ?x436 (* (- 2.0) A_0) (* 3.0 S_1) L_3 (* 2.0 L_0)) (- 5.0))))
 (let (($x70260 (or $x76 (<= (+ ?x436 A_2 ?x1290 ?x290 S_1 L_3 L_0) (- 5.0)) $x63132)))
 (let ((?x1272 (* (- 3.0) L_1)))
 (let ((?x4287 (* (- 2.0) S_0)))
 (let ((?x1271 (* 3.0 A_1)))
 (let (($x133174 (or $x76 $x571 $x61203 (<= (+ ?x2112 ?x307 ?x2114 ?x436 ?x1271 ?x4287 ?x1272 ?x2115) 0.0))))
 (let (($x56 (= L_1 L_0)))
 (let (($x70193 (or $x56 (<= (+ ?x2380 (* (- (/ 1.0 2.0)) L_3) ?x2387 ?x431 ?x2388 S_0 L_1) (- 5.0)))))
 (let (($x63664 (<= (+ ?x2112 ?x1730 ?x2114 A_3 A_1 (* (- 2.0) S_2) ?x273 ?x2115) 0.0)))
 (let (($x67307 (<= (+ ?x2107 ?x1610 ?x2118 ?x436 ?x431 (* 2.0 S_1) L_1 ?x2119) 0.0)))
 (let ((?x892 (+ L_2 ?x307)))
 (let (($x60382 (<= 0.0 ?x892)))
 (let (($x131796 (or $x76 (not (<= (+ ?x439 A_3 A_2 ?x431 ?x290 L_1) 0.0)) $x63275)))
 (let (($x69812 (<= (+ ?x2112 ?x307 ?x442 ?x436 A_2 (* (- 1.0) S_3) ?x290 L_5) 0.0)))
 (let ((?x3354 (* (- (/ 3.0 2.0)) L_1)))
 (let ((?x4818 (* (/ 3.0 2.0) A_1)))
 (let ((?x2414 (* (- (/ 3.0 2.0)) A_3)))
 (let (($x32285 (<= (+ ?x2414 ?x4818 S_2 ?x1262 ?x3354 ?x2415) 0.0)))
 (let (($x134875 (or $x571 (<= (+ A_4 ?x307 ?x442 A_2 (* (- 1.0) S_3) ?x290 L_5) (- 5.0)))))
 (let ((?x26864 (* (/ 3.0 4.0) L_5)))
 (let ((?x26887 (* (- (/ 3.0 4.0)) A_5)))
 (let (($x68193 (<= (+ A_4 ?x307 ?x26887 (* (- (/ 1.0 4.0)) A_1) (* (/ 1.0 4.0) L_1) ?x26864) (- 5.0))))
 (let (($x58536 (not $x60382)))
 (let (($x64355 (or $x571 $x58536 (<= (+ A_4 ?x307 ?x442 ?x2382 ?x5477 ?x404 ?x5602 ?x1838 L_5) 0.0))))
 (let (($x68501 (or $x66 $x590 (<= (+ S_5 ?x2107 ?x1582 A_5 ?x433 S_0 L_2 ?x341) 0.0))))
 (let ((?x2092 (* 2.0 L_0)))
 (let ((?x6081 (* 2.0 S_1)))
 (let ((?x2093 (* (- 2.0) A_0)))
 (let ((?x248 (* (- 1.0) L_0)))
 (let ((?x4355 (* (- 2.0) S_2)))
 (let (($x1671 (not $x56)))
 (let (($x133097 (or $x571 $x1671 (<= (+ ?x2112 ?x1730 ?x2114 A_3 A_1 ?x4355 ?x2115 ?x248) 0.0))))
 (let ((?x65392 (+ ?x439 L_3 (* (/ 4.0 3.0) A_5) (* (- (/ 4.0 3.0)) A_2) S_0 (* (/ 4.0 3.0) L_2) (* (- (/ 4.0 3.0)) L_5))))
 (let ((?x1247 (* 2.0 L_2)))
 (let ((?x1246 (* (- 2.0) A_2)))
 (let ((?x1607 (+ A_3 ?x1246 A_1 ?x273 ?x1247 ?x307)))
 (let (($x60985 (or $x66 (<= ?x1607 (- 5.0)) (<= (+ (* 2.0 A_3) ?x1234 S_0 ?x1237 ?x1595) (- 5.0)))))
 (let (($x69215 (or $x66 (<= (+ S_5 ?x439 L_3 ?x433 A_1 ?x273 L_2) (- 5.0)) (<= (+ ?x2945 ?x2107 ?x1582 ?x433 S_0 L_2) (- 5.0)))))
 (let ((?x2383 (* (- (/ 1.0 2.0)) L_3)))
 (let ((?x3056 (* (/ 1.0 2.0) L_1)))
 (let ((?x4391 (* (- (/ 1.0 2.0)) A_1)))
 (let (($x135157 (or $x571 $x2925 (<= (+ A_4 ?x307 ?x2371 ?x5477 (* (- 1.0) S_3) ?x5602 ?x2075) 0.0))))
 (let ((?x27557 (* 5.0 L_2)))
 (let ((?x10784 (* (- 5.0) L_1)))
 (let ((?x27576 (* 5.0 A_1)))
 (let ((?x27236 (* (- 5.0) A_2)))
 (let (($x67312 (<= (+ A_4 ?x307 ?x26887 (* (/ 3.0 4.0) A_1) ?x404 (* (- (/ 3.0 4.0)) L_1) ?x26864) 0.0)))
 (let ((?x5307 (* (- (/ 2.0 3.0)) L_1)))
 (let ((?x4620 (* (/ 1.0 3.0) S_3)))
 (let ((?x5314 (* (/ 2.0 3.0) A_1)))
 (let (($x65545 (<= (+ A_4 ?x307 (* (- 4.0) A_2) ?x13297 ?x398 ?x10020 (* 4.0 L_2)) 0.0)))
 (let (($x68695 (<= (+ A_4 ?x307 ?x442 ?x433 A_1 S_3 L_2 ?x404 ?x273 L_5) 0.0)))
 (let (($x67118 (<= (+ ?x5310 ?x9553 ?x26375 (* (- (/ 1.0 3.0)) A_1) ?x4620 (* (/ 1.0 3.0) L_1) ?x26396) (- 5.0))))
 (let (($x130870 (or $x76 $x1630 (<= (+ ?x1609 ?x1271 (* 2.0 S_3) ?x5359 ?x1272 ?x1610) 0.0))))
 (let (($x134961 (or $x571 (<= (+ A_4 ?x307 ?x442 A_1 (* (- 1.0) S_3) ?x273 L_5) (- 10.0)))))
 (let (($x7961 (<= (+ A_1 (* (- 1.0) S_3) ?x273) (- 5.0))))
 (let (($x1275 (<= (+ A_5 (* (- 4.0) A_2) ?x1271 ?x1272 (* 4.0 L_2) ?x341) 0.0)))
 (let ((?x26364 (* (- (/ 2.0 3.0)) L_2)))
 (let ((?x411 (* (- 1.0) S_3)))
 (let ((?x26358 (* (/ 2.0 3.0) A_2)))
 (let (($x131522 (or $x56 $x2925 (<= (+ ?x439 L_3 A_5 ?x431 ?x411 ?x6081 L_1 ?x341) 0.0))))
 (let (($x61990 (<= (+ A_4 ?x436 A_1 ?x411 ?x273) 0.0)))
 (let (($x68301 (or $x2925 $x61990 (<= (+ A_4 ?x436 (* (- (/ 1.0 2.0)) S_3) (* (/ 1.0 2.0) S_0)) 0.0))))
 (let (($x68101 (<= (+ ?x2393 (* (- (/ 3.0 2.0)) L_3) ?x442 ?x2387 A_1 ?x2388 ?x404 ?x273 L_5) 0.0)))
 (let ((?x1273 (* 4.0 L_2)))
 (let ((?x1270 (* (- 4.0) A_2)))
 (let (($x66455 (or $x76 (<= (+ ?x2380 ?x2355 ?x436 ?x2369 A_1 ?x1838 ?x404 ?x273) 0.0) (<= (+ A_4 ?x2355 ?x2414 ?x4818 ?x404 ?x3354) 0.0))))
 (let (($x135916 (or $x66 (<= (+ A_3 ?x433 A_1 ?x411 ?x273 L_2 ?x307) 0.0) (<= (+ (* 2.0 A_3) ?x1246 ?x411 S_0 ?x1247 ?x1595) 0.0))))
 (let (($x131906 (or $x571 $x2925 (<= (+ ?x2945 ?x439 L_3 ?x442 A_1 ?x411 ?x273 L_5) 0.0))))
 (let (($x67793 (or $x66 $x571 (<= (+ ?x2380 ?x2383 ?x2371 ?x2387 (* (/ 1.0 2.0) S_3) ?x2388 ?x2075) (- 5.0)))))
 (let ((?x2021 (* (- 3.0) L_5)))
 (let ((?x6727 (* 2.0 S_3)))
 (let ((?x2090 (* 3.0 A_5)))
 (let (($x133302 (or $x76 $x61203 (<= (+ ?x2107 ?x3357 ?x2118 ?x1400 A_1 S_3 ?x273 ?x2119) 0.0) (<= (+ ?x2081 (* 6.0 L_3) ?x2090 ?x1609 ?x6727 S_0 ?x2021) 0.0))))
 (let (($x1339 (<= (+ A_1 ?x273 ?x404) 0.0)))
 (let (($x133542 (or $x571 $x1339 (<= (+ A_4 ?x1595 ?x442 A_3 ?x4355 S_0 L_5) 0.0))))
 (let (($x134673 (or $x76 (<= (+ S_5 ?x2107 ?x1610 A_5 ?x436 S_1 ?x341) 0.0) $x61203)))
 (let (($x132841 (or $x76 (<= (+ A_4 ?x2355 ?x2414 ?x5477 ?x5602) (- 5.0)) (<= (+ ?x2364 A_2 ?x4391 ?x290 ?x3056 ?x2355) (- 5.0)))))
 (let (($x67421 (or $x571 (<= (+ ?x2393 (* (- (/ 3.0 2.0)) L_3) ?x442 ?x2387 ?x2388 L_5) (- 5.0)))))
 (let (($x133607 (or $x66 (<= (+ ?x439 L_3 A_5 ?x1234 ?x1235 S_3 ?x1236 ?x1237 ?x341) 0.0))))
 (let (($x133191 (or $x76 (<= (+ ?x1400 ?x1235 ?x2093 (* 2.0 S_2) ?x1236 ?x1582 ?x2092) 0.0))))
 (let (($x67045 (<= (+ ?x2107 (* 5.0 L_3) ?x2118 ?x1609 A_1 ?x6727 ?x273 ?x2119) 0.0)))
 (let (($x64151 (or $x56 $x571 (<= (+ A_4 (* (- (/ 3.0 2.0)) L_3) ?x442 ?x2382 ?x4391 ?x3056 L_5) (- 5.0)))))
 (let (($x133869 (or $x571 $x60382 (<= (+ A_4 ?x442 ?x436 ?x1242 ?x1290 ?x1243 L_5 L_0) 0.0))))
 (let (($x61388 (<= (+ (* (/ 1.0 4.0) A_4) (* (- (/ 1.0 4.0)) L_3) ?x431 (* (/ 3.0 4.0) S_0) L_1) (- 5.0))))
 (let (($x131527 (or $x76 (<= (+ ?x1400 ?x1242 A_1 ?x273 ?x1262 ?x1243 ?x1582) 0.0) (not (<= 0.0 (+ ?x436 A_2 ?x431 S_2 L_1 ?x290 L_3))))))
 (let (($x134092 (or $x56 (<= (+ ?x2382 (* (- (/ 3.0 2.0)) A_1) S_0 (* (/ 3.0 2.0) L_1) ?x2383) (- 5.0)))))
 (let ((?x1184 (* 2.0 L_1)))
 (let ((?x1151 (* (- 2.0) A_1)))
 (let ((?x731 (* 2.0 A_3)))
 (let (($x131902 (or $x2925 (<= (+ S_5 ?x439 L_3 (* (- (/ 1.0 2.0)) S_3) (* (/ 1.0 2.0) S_0)) 0.0) (<= (+ S_5 ?x439 L_3 A_1 ?x411 ?x273) 0.0))))
 (let (($x134174 (or $x571 $x2925 (<= (+ ?x2103 ?x1730 ?x2101 ?x1271 ?x411 ?x4287 ?x1272 ?x2082) 0.0))))
 (let ((?x2407 (* (- (/ 3.0 2.0)) L_5)))
 (let ((?x7477 (* (/ 1.0 2.0) S_3)))
 (let ((?x2404 (* (/ 3.0 2.0) A_5)))
 (let ((?x2402 (* (- (/ 3.0 2.0)) A_4)))
 (let ((?x65520 (+ ?x2402 ?x2415 ?x2404 (* (- (/ 3.0 2.0)) A_2) ?x7477 S_0 (* (/ 3.0 2.0) L_2) ?x2407)))
 (let (($x131153 (or $x571 (<= (+ ?x2393 (* (- (/ 3.0 2.0)) L_3) ?x2396 ?x2369 ?x4892 ?x1838 ?x2399) (- 5.0)))))
 (let (($x132943 (or $x571 $x2925 (<= (+ ?x2103 ?x307 ?x442 ?x1400 A_1 ?x411 ?x273 L_5) 0.0))))
 (let (($x132095 (or $x66 $x590 (<= (+ ?x2107 ?x1582 ?x2118 ?x1246 S_2 S_0 ?x1247 ?x2119) 0.0))))
 (let (($x135262 (or $x66 (<= (+ ?x439 L_3 A_5 ?x1246 A_1 S_2 ?x273 ?x1247 ?x341) 0.0))))
 (let ((?x2398 (* (- (/ 3.0 2.0)) L_2)))
 (let ((?x2397 (* (/ 3.0 2.0) A_2)))
 (let ((?x2426 (* (- (/ 3.0 2.0)) L_3)))
 (let (($x132053 (or $x66 $x571 (<= (+ A_4 ?x307 ?x442 ?x433 ?x1235 ?x1262 ?x1236 L_2 L_5) 0.0))))
 (let (($x58220 (not (<= 0.0 (+ L_1 ?x290)))))
 (let (($x132321 (or $x56 (<= (+ A_2 ?x431 (* (- (/ 1.0 2.0)) S_3) (* (/ 1.0 2.0) S_0)) 0.0) $x58220)))
 (let (($x131659 (or (<= (+ A_4 ?x307 ?x442 A_1 ?x1290 ?x273 L_5 L_0) 0.0) $x571)))
 (let (($x134825 (or $x56 $x571 (<= (+ A_4 ?x307 ?x442 ?x1242 ?x431 ?x411 L_1 ?x1243 L_5) 0.0))))
 (let (($x132075 (or $x571 (<= (+ ?x2112 ?x1595 ?x2114 ?x1242 ?x1290 ?x411 ?x1243 ?x2115 L_0) 0.0))))
 (let (($x61728 (<= (+ (* (/ 1.0 3.0) A_4) (* (- (/ 1.0 3.0)) L_3) ?x411 (* (/ 2.0 3.0) S_1)) 0.0)))
 (let (($x134746 (or $x76 $x61203 (<= (+ ?x439 (* (/ 5.0 2.0) L_3) ?x2404 ?x2414 S_1 ?x2407) 0.0))))
 (let ((?x2389 (* (- (/ 1.0 2.0)) L_5)))
 (let ((?x2386 (* (/ 1.0 2.0) A_5)))
 (let ((?x2373 (* (- (/ 1.0 2.0)) A_4)))
 (let (($x131963 (or $x76 $x61203 (<= (+ ?x2373 L_3 ?x2386 ?x2364 ?x8688 S_1 ?x2389 ?x11192) 0.0))))
 (let (($x61649 (<= (+ (* (/ 1.0 4.0) A_4) (* (- (/ 1.0 4.0)) L_3) ?x404 (* (/ 3.0 4.0) S_0)) 0.0)))
 (let (($x131876 (or $x66 (not (<= 0.0 (+ ?x431 ?x4620 (* (/ 2.0 3.0) S_0) L_1))) (<= (+ ?x1246 A_1 S_3 ?x273 ?x1247) (- 10.0)))))
 (let ((?x4621 (* (/ 2.0 3.0) S_0)))
 (let ((?x4645 (+ ?x431 ?x4620 ?x4621 L_1)))
 (let (($x61931 (<= 0.0 ?x4645)))
 (let (($x61933 (or $x66 $x61931 (<= (+ ?x433 (* (/ 2.0 3.0) S_3) (* (/ 1.0 3.0) S_0) L_2) (- 5.0)))))
 (let (($x61840 (or $x2925 (<= (+ (* (- (/ 1.0 2.0)) S_3) (* (/ 1.0 2.0) S_0)) (- 5.0)) (<= 0.0 (+ ?x431 ?x7477 (* (/ 1.0 2.0) S_0) L_1)))))
 (let (($x135413 (or $x66 $x571 (<= (+ A_4 ?x1595 ?x442 A_3 ?x433 L_2 L_5) (- 5.0)))))
 (let (($x134086 (or $x76 $x571 (<= (+ A_4 L_3 ?x442 ?x1400 ?x1174 ?x1262 ?x1086 L_5) 0.0))))
 (let (($x135835 (or $x66 $x590 (<= (+ ?x439 A_5 A_3 ?x1246 S_0 ?x1247 ?x341) 0.0))))
 (let (($x134379 (or $x76 (<= (+ ?x439 ?x1610 A_5 ?x1400 A_2 S_3 ?x290 ?x341) 0.0))))
 (let (($x135606 (or $x571 (<= (+ A_4 ?x442 A_2 ?x431 L_1 ?x290 ?x307 L_5) 0.0))))
 (let (($x140 (>= S_5 S_4)))
 (let (($x128 (>= S_1 S_0)))
 (let (($x131 (>= S_2 S_1)))
 (let (($x134 (>= S_3 S_2)))
 (let (($x142 (>= A_1 A_0)))
 (let (($x143 (>= A_2 A_1)))
 (let (($x144 (>= A_3 A_2)))
 (let (($x145 (>= A_4 A_3)))
 (and (<= (+ A_4 ?x307) S_4) $x145 $x144 $x143 $x142 $x134 $x131 $x128 $x140 (or $x56 (not (<= 0.0 (+ ?x273 L_0)))) $x135606 (or $x571 (<= (+ A_4 ?x307 ?x442 A_1 ?x398 ?x273 L_5) 0.0)) (or $x66 (<= (+ ?x439 L_3 A_5 ?x433 S_1 L_2 ?x341) 0.0)) (or $x76 (<= (+ A_5 ?x1609 ?x1242 ?x1243 ?x1610 ?x341) 0.0)) (or (<= (+ A_4 ?x307 ?x442 A_2 ?x404 ?x290 L_5) 0.0) $x571) (or $x571 (<= (+ A_4 ?x1595 ?x442 A_3 ?x411 L_5) 0.0)) $x134379 (or $x58220 $x66) $x135835 (or (not (<= 0.0 (+ L_3 ?x341))) $x571) (or $x76 $x571 (<= (+ A_4 ?x442 ?x436 ?x1242 ?x398 ?x1243 L_5) 0.0)) $x134086 (or $x76 $x58536) $x135413 (or $x76 $x571 (not $x590) $x721) (or $x76 (<= (+ ?x439 ?x1582 A_5 ?x436 S_2 ?x341) 0.0)) (or $x76 (<= ?x60196 0.0)) (or $x76 (<= (+ A_4 L_3 ?x1400 A_2 ?x290) (- 5.0))) (or $x66 (<= (+ ?x433 S_2 L_2) (- 5.0))) (or $x66 (<= (+ ?x433 A_1 ?x273 L_2) (- 5.0))) (or $x571 (<= (+ S_5 ?x442 L_5) (- 5.0))) (or $x1339 (<= (+ ?x404 S_0) (- 5.0))) (or $x1339 (<= (+ ?x4620 ?x404 ?x4621) 0.0)) (or $x76 (<= (+ A_4 L_3 ?x1400 ?x1242 ?x411 ?x1243) 0.0)) $x61840 $x61933 $x131876 (or $x1339 $x61649) (or $x56 (<= (+ ?x431 S_1 L_1) (- 5.0))) (or $x571 (<= (+ A_4 ?x307 ?x442 ?x1290 S_1 L_5 L_0) (- 5.0))) (or $x56 (<= ?x489 (- 5.0)) $x571) (or $x56 (<= (+ ?x439 L_3 A_5 ?x431 S_0 L_1 ?x341) 0.0)) (or $x66 (<= (+ ?x433 ?x1290 ?x6081 L_2 L_0) (- 5.0))) (or $x571 (<= ?x59248 0.0)) (or $x76 (<= (+ L_3 ?x436 A_2 ?x1290 ?x290 S_1 L_0) 0.0)) $x131963 $x134746 (or $x66 $x1339 (<= (+ A_3 ?x433 ?x404 S_0 L_2 ?x307) 0.0)) (or $x2925 $x61728) (or $x571 (<= (+ A_4 ?x307 ?x442 L_5) (- 10.0))) (or $x2925 (<= (+ ?x411 S_1) (- 5.0))) (or $x56 (<= (+ A_3 ?x433 ?x431 L_2 S_0 L_1 ?x307) 0.0)) (or $x66 (<= (+ A_3 ?x1246 S_1 ?x1247 ?x307) (- 5.0))) (or $x2925 (<= (+ ?x1290 ?x411 ?x6081 L_0) 0.0)) (or $x2925 (<= (+ S_5 ?x439 L_3 ?x411 S_1) 0.0)) (or $x76 $x571 (<= (+ A_4 ?x2383 ?x2371 ?x2364 ?x2075) (- 5.0))) (or $x76 (<= (+ ?x436 S_3 L_3) (- 5.0))) (or $x1339 (<= (+ S_5 ?x439 L_3 ?x404 S_0) 0.0)) $x132075 $x134825 (or $x56 (<= (+ A_2 ?x431 ?x411 S_1 L_1 ?x290) 0.0)) (or $x66 (<= (+ ?x2383 ?x2382 ?x433 ?x5477 ?x5602 L_2) 0.0)) $x131659 (or $x66 (<= (+ ?x1246 ?x1235 ?x1290 S_2 ?x1236 ?x1247 L_0) 0.0)) (or $x66 (<= (+ ?x433 S_1 L_2) (- 10.0))) (or $x2925 (<= (+ A_4 ?x436 ?x411 S_1) 0.0)) (or $x571 (<= (+ ?x2112 ?x307 ?x442 ?x436 L_5) (- 5.0))) $x132321 (or $x66 (<= (+ ?x1246 ?x1235 S_2 ?x398 ?x1236 ?x1247) 0.0)) (or $x56 (<= (+ A_2 ?x1151 S_0 ?x1184 ?x290) (- 5.0))) (or $x56 (<= (+ ?x1242 ?x1151 ?x411 S_0 ?x1184 ?x1243) 0.0)) (or $x66 (<= (+ ?x1234 ?x1271 S_2 ?x1262 ?x1272 ?x1237) 0.0)) (or $x66 (<= (+ ?x1246 ?x1235 S_1 ?x1262 ?x1236 ?x1247) 0.0)) (or $x56 (<= (+ ?x431 ?x19033 (* (/ 1.0 2.0) S_0) L_1) (- 5.0))) (or $x66 (<= (+ ?x433 A_1 ?x1290 S_1 ?x273 L_2 L_0) 0.0)) $x132053 (or $x571 (<= (+ ?x2393 ?x2426 ?x2396 ?x2397 ?x411 ?x4892 ?x2398 ?x2399) 0.0)) (or $x571 (<= (+ ?x2112 ?x1595 ?x2114 ?x1242 ?x411 ?x398 ?x1243 ?x2115) 0.0)) $x135262 $x132095 $x132943 (or $x571 (<= (+ ?x2112 ?x1595 ?x2114 A_1 ?x1262 ?x273 ?x2115) (- 5.0))) (or $x571 (<= (+ ?x2112 ?x1595 ?x2114 A_2 ?x398 ?x290 ?x2115) (- 5.0))) $x131153 (or $x1339 (<= (+ ?x2380 ?x2383 ?x2387 ?x2388 ?x404 S_0) 0.0)) (or $x66 $x590 (<= ?x65520 0.0)) $x134174 (or $x571 (<= (+ ?x2112 ?x1595 ?x2114 A_2 ?x1290 ?x290 ?x2115 L_0) (- 5.0))) (or $x56 (<= (+ ?x431 S_0 L_1) (- 10.0))) (or $x76 (<= (+ A_4 ?x1582 ?x1609 ?x1174 ?x431 L_1 ?x1086) 0.0)) (or $x56 $x76 (<= 0.0 ?x1607)) (or $x66 (<= ?x59753 0.0)) (or $x56 (<= (+ A_4 ?x436 ?x431 S_0 L_1) (- 5.0))) (or $x56 $x571 (<= (+ ?x2380 ?x2383 ?x2371 ?x4391 ?x19033 ?x3056 ?x2075) (- 5.0))) (or $x66 $x57897 $x61950) (or $x56 (<= (+ A_2 ?x431 ?x404 S_0 L_1 ?x290) 0.0)) $x131902 (or $x56 $x2925 (<= (+ A_3 ?x431 ?x5323 ?x6081 L_1 ?x307) 0.0)) (or $x76 $x2925 $x32285) (or $x56 (<= (+ ?x731 ?x1151 ?x5323 (* 2.0 S_0) ?x1184 ?x1595) 0.0)) (or $x66 (<= (+ ?x1246 A_1 S_3 ?x273 ?x1247) (- 5.0))) (or $x76 $x721 (<= (+ ?x1609 ?x1271 ?x2093 ?x6727 ?x1272 ?x1610 ?x2092) 0.0)) (or $x66 (<= (+ ?x1234 ?x1271 ?x1290 S_3 ?x1272 ?x1237 L_0) 0.0)) $x134092 $x131527 (or $x76 (<= (+ ?x436 A_2 ?x431 L_1 S_2 ?x290 L_3) 0.0)) (or $x56 (<= ?x4645 (- 5.0))) (or $x56 $x61388) (or $x1339 (<= (+ A_4 ?x436 ?x404 S_0) 0.0)) (or $x571 (<= (+ S_5 ?x442 A_2 ?x411 ?x290 L_5) 0.0)) (or $x56 (<= (+ S_5 ?x439 L_3 ?x431 S_0 L_1) (- 5.0))) (or $x571 (<= (+ S_5 ?x442 A_1 ?x404 ?x273 L_5) 0.0)) (or $x66 (<= (+ S_5 ?x439 L_3 ?x433 A_1 ?x273 L_2) 0.0)) $x133869 (or $x76 (<= (+ ?x1400 ?x1242 ?x431 S_3 L_1 ?x1243 ?x1582) 0.0)) (or $x571 (<= (+ A_4 ?x307 ?x442 ?x433 S_3 L_2 L_5) (- 5.0))) (or $x76 (<= (+ ?x436 ?x431 L_1 (* 2.0 S_2) L_3) (- 5.0))) $x64151 (or $x76 $x61203 (<= ?x65957 0.0)) (or $x76 $x61203 $x67045) $x133191 (or $x571 (<= (+ ?x2112 ?x307 ?x442 ?x436 A_1 ?x404 ?x273 L_5) 0.0)) (or $x76 $x2925 $x61990) (or $x571 (<= (+ ?x2112 ?x1595 ?x2114 ?x1235 ?x404 ?x1262 ?x1236 ?x2115) 0.0)) $x133607 (or $x66 (<= ?x62100 (- 5.0))) (or $x571 (<= (+ ?x2103 ?x1730 ?x2114 ?x411 ?x2115) (- 10.0))) $x67421 $x132841 (or $x1339 (<= (+ ?x433 S_3 L_2 ?x404 S_0) 0.0)) (or $x76 (<= (+ ?x436 A_1 S_3 ?x404 ?x273 L_3) 0.0)) (or $x76 $x61203 (<= (+ ?x2107 ?x3357 ?x2118 ?x1400 S_3 S_1 ?x2119) 0.0)) $x134673 $x133542 $x133302 $x67793 (or $x66 (<= (+ ?x1270 ?x13297 S_3 ?x1262 ?x10020 ?x1273) 0.0)) (or $x66 (<= (+ ?x1234 ?x1271 S_3 ?x398 ?x1272 ?x1237) 0.0)) (or $x66 (<= (+ A_3 ?x433 ?x411 S_1 L_2 ?x307) 0.0)) $x131906 $x135916 (or $x66 (<= (+ A_4 ?x307 ?x1246 ?x1235 ?x411 ?x1236 ?x1247) 0.0)) (or $x66 (<= (+ A_4 ?x307 ?x1234 ?x1271 ?x404 ?x1272 ?x1237) 0.0)) $x66455 (or $x66 (<= (+ A_4 ?x307 ?x1270 ?x13297 ?x1290 ?x10020 ?x1273 L_0) 0.0)) (or $x571 $x68101) (or $x571 (<= (+ A_4 ?x307 ?x442 ?x431 S_2 L_1 L_5) (- 5.0))) (or $x76 $x2925 $x68165) $x68301 $x131522 (or $x571 (<= (+ A_4 ?x307 ?x26375 ?x26358 ?x411 ?x26364 ?x26396) 0.0)) (or $x66 $x1275) (or $x2925 (<= (+ ?x5323 (* 3.0 S_1) ?x1262) 0.0)) (or $x2925 $x7961 (not (<= (- 5.0) (+ ?x431 S_0 L_1)))) (or $x76 (<= (+ A_5 ?x1400 A_1 ?x273 ?x1582 ?x341) 0.0) $x61203) $x134961 (or $x571 (<= (+ A_4 ?x307 ?x442 A_1 ?x404 ?x273 L_5) (- 5.0))) (or $x56 $x76 (<= (+ ?x2364 ?x4391 S_2 ?x3056 ?x2355) (- 5.0))) (or $x76 (<= (+ ?x1400 ?x1235 (* 2.0 S_2) ?x5359 ?x1236 ?x1582) 0.0)) $x130870 (or $x56 $x571 $x67118) (or $x571 $x68695) (or $x66 $x65545) (or $x66 (<= (+ ?x1246 ?x1235 S_3 ?x404 ?x1236 ?x1247) 0.0)) (or $x571 (<= (+ ?x5310 ?x9553 ?x26375 ?x5314 ?x4620 ?x404 ?x5307 ?x26396) 0.0)) (or $x571 $x67312) (or $x66 (<= (+ A_4 ?x307 ?x27236 ?x27576 ?x1262 ?x10784 ?x27557) 0.0)) $x135157 (or $x76 $x721 (<= (+ ?x2112 ?x1582 ?x3103 ?x13297 ?x2093 ?x10020 ?x2092) 0.0)) (or $x56 (<= (+ ?x2382 ?x4391 ?x404 S_0 ?x3056 ?x2383) 0.0)) (or $x76 (<= (+ A_4 ?x1582 ?x1609 ?x1174 ?x404 ?x1086) 0.0)) (or $x76 (<= (+ ?x1400 ?x1242 S_3 ?x404 ?x1243 ?x1582) 0.0)) (or $x76 (<= (+ ?x1400 ?x1242 ?x1290 S_2 ?x1243 ?x1582 L_0) 0.0)) (or $x76 (<= (+ ?x1609 ?x1174 ?x1290 S_3 ?x1086 ?x1610 L_0) 0.0)) $x69215 $x60985 (or $x66 $x590 (<= ?x65392 0.0)) $x133097 (or $x571 (<= (+ ?x2112 ?x1730 ?x2114 A_3 ?x431 L_1 ?x2115) (- 5.0))) (or $x571 (<= (+ ?x2393 ?x1595 ?x2396 ?x2382 ?x8688 ?x2399 ?x11192) (- 5.0))) (or $x76 $x721 (<= (+ ?x436 A_1 ?x2093 ?x6081 ?x273 L_3 ?x2092) 0.0)) (or $x76 $x721 $x15705) (or $x76 $x721 $x32285) (or $x76 $x32285 $x69612) (or $x76 $x1630 $x32285) (or $x76 $x15705 $x69612) (or $x76 $x15705 $x43856) $x68501 $x64355 (or $x56 $x571 $x68193) $x134875 (or $x76 $x2925 $x66457) (or $x76 $x32285 $x61203) (or $x571 $x69812) (or $x56 (<= (+ ?x433 ?x431 S_3 L_2 S_0 L_1) (- 5.0))) $x131796 (or $x56 $x60382 $x61203 $x67307) (or $x571 $x63664) (or $x66 (<= (+ ?x433 ?x7477 ?x9162 L_2) (- 5.0))) $x70193 $x133174 (or $x76 $x31059 $x61203) (or $x76 $x1630 $x68165) (or $x76 $x721 $x68165) $x70260 (or $x76 $x64350 $x68165) (or $x66 $x62689) (or $x2925 $x61686 (<= (+ ?x5310 ?x9553 ?x5322 ?x5323 ?x5324) 0.0)) (or $x76 $x2925 $x15705) (or $x76 (<= (+ ?x5310 ?x9152 ?x436 (* (/ 1.0 3.0) S_1)) (- 5.0)) $x63275) $x132828 (or $x76 $x31059 $x43856) (or $x76 $x721 $x31059) (or $x76 $x31059 $x69612) (or $x76 $x43856 $x66457) (or $x76 (<= (+ ?x2380 ?x2355 ?x436 ?x19033) (- 5.0))) (or $x76 $x66457 $x69612) (or $x76 $x721 $x66457) (or $x76 (<= (+ L_3 ?x436 A_2 ?x290 ?x9162 ?x4892) 0.0)) (or $x76 $x1630 (<= (+ ?x2112 ?x1582 ?x3103 ?x13297 ?x5359 ?x10020) 0.0)) (or $x76 (<= (+ S_5 ?x439 ?x1582 ?x436 S_2) (- 5.0))) (or $x76 $x1630 $x31059) (or $x76 $x1630 $x66457) $x136211 (or $x76 $x68165 $x69612) (or $x76 $x43856 $x68165) $x132365 (or $x66 $x571 $x67124) (or $x76 $x15705 $x61203) (or $x76 $x61203 $x66457) $x132622 (or $x66 (<= (+ S_5 ?x439 L_3 ?x433 S_1 L_2) (- 5.0))) (or $x76 (<= (+ ?x1609 ?x1174 S_2 ?x1262 ?x1086 ?x1610) 0.0)) (or $x76 $x3401) (or $x76 (<= (+ A_4 ?x1610 ?x3103 ?x3113 ?x398 ?x3263) 0.0)) (or $x76 (<= (+ A_4 ?x1610 ?x3103 ?x3113 ?x1290 ?x3263 L_0) 0.0)) (or $x76 (<= (+ ?x436 (* (/ 4.0 3.0) S_2) ?x4604 L_3) (- 5.0))) (or $x76 (<= (+ ?x436 (* (/ 3.0 2.0) S_2) ?x6172 L_3) (- 5.0))) (or $x66 (<= (+ ?x433 (* (/ 3.0 2.0) S_1) ?x4892 L_2) (- 5.0))) (or $x571 (<= (+ A_4 ?x307 ?x442 ?x8688 ?x19033 L_5 ?x11192) (- 5.0))) (or $x76 (<= (+ A_4 ?x3357 ?x3438 ?x3589 ?x1262 ?x3572) 0.0)) (or $x66 (<= (+ A_4 ?x436 ?x433 S_1 L_2) (- 5.0))) (or $x76 (<= (+ ?x1609 ?x1174 S_3 ?x398 ?x1086 ?x1610) 0.0)) (or $x66 $x57897 (<= (+ ?x2112 ?x1400 ?x433 S_0 L_2) (- 5.0))) (or $x76 (<= (+ ?x3103 ?x3113 S_3 ?x1262 ?x3263 ?x3357) 0.0)) (or $x76 $x61203 (<= (+ ?x439 ?x1610 ?x2118 ?x1400 S_0 ?x2119) 0.0) $x63525) $x65267 (or $x571 (<= (+ ?x2393 ?x1595 ?x2396 ?x2382 ?x6172 ?x2399) (- 5.0))) $x132448 (or $x571 (<= (+ A_4 ?x307 ?x442 ?x9162 ?x4892 L_5) (- 5.0))) (or $x76 $x61203 $x67910) $x134124 (or $x66 $x61950 (<= ?x62100 (- 15.0))) (or $x76 (<= (+ ?x2945 ?x2107 ?x1610 ?x436 S_1) (- 5.0)) $x64350) (or $x571 (<= (+ ?x7019 ?x27113 ?x26405 ?x9056 ?x4604 ?x26408) (- 5.0))) (or $x571 (<= (+ ?x4433 ?x60984 ?x6679 ?x1290 ?x7184 L_0) (- 20.0))) (or $x76 $x70530) (or $x76 (<= (+ ?x5310 ?x9152 ?x436 ?x5154 ?x5296) (- 5.0)) $x63275 $x63507) $x72133 $x134797 $x134123 (or $x76 $x64350 (<= ?x65957 (- 5.0)) $x66185) $x72211 $x133865 (or $x571 (<= (+ ?x2112 ?x1595 ?x2114 S_2 ?x398 ?x2115) (- 10.0))) (or $x571 (<= (+ ?x2950 ?x3577 ?x2101 ?x404 ?x2082) (- 15.0))) (or $x571 (<= (+ ?x2103 ?x1730 ?x2101 S_3 ?x398 ?x2082) (- 15.0))) (or $x571 $x66735) (or $x571 (<= (+ ?x2950 ?x3577 ?x6679 S_3 ?x1262 ?x7184) (- 20.0))) (or $x571 (<= (+ A_4 ?x307 ?x442 ?x32061 ?x4604 L_5) (- 5.0))) (or $x571 (<= (+ ?x29355 ?x67420 ?x29327 ?x1262 ?x25248) (- 25.0))) $x39 (<= (+ ?x1290 S_0 L_0) 0.0) (<= (+ ?x439 L_3 S_4) 0.0) (<= (+ ?x431 L_1 S_1) 0.0) (<= (+ S_5 ?x442 L_5) 0.0) (<= (+ ?x436 S_3 L_3) 0.0) (<= (+ ?x433 S_2 L_2) 0.0))))))))))))))))))))))))))))))))))))))))))))))))))))))))))))))))))))))))))))))))))))))))))))))))))))))))))))))))))))))))))))))))))))))))))))))))))))))))))))))))))))))))))))))))))))))))))))))))))))))))))))))))))))))))))))))))))))))))))))))))))))))))))))))))))))))))))))))))))))))))))))))))))))
(check-sat)
